p cnf 11 10
-1 3 4 6 8 9 10 11 0 
-2 5 11 0 
-3 1 4 6 8 9 10 11 0 
-4 1 3 6 8 9 10 11 0 
-5 2 11 0 
-6 1 3 4 8 9 10 -7 11 0 
-6 1 3 4 8 9 10 11 0 
-8 1 3 4 6 9 10 11 0 
-9 1 3 4 6 8 10 11 0 
-10 1 3 4 6 8 9 11 0 
